(set-info :smt-lib-version 2.6)
(set-logic QF_UFBV)
(set-info :source |
Generated by: Certora
Generated on: 2024-01-16
Generator: The Certora Prover
Application: Web3 security
|)
(set-info :license "https://creativecommons.org/licenses/by/4.0/")
(set-info :category "industrial")
(set-info :status unknown)
(declare-fun x85 () Bool)
(declare-fun x109 () Bool)
(declare-fun x234 () (_ BitVec 256))
(declare-fun x248 () (_ BitVec 256))
(declare-fun x80 () Bool)
(declare-fun x194 () Bool)
(declare-fun x74 () (_ BitVec 256))
(declare-fun x65 () (_ BitVec 256))
(declare-fun x192 () Bool)
(declare-fun x26 () (_ BitVec 256))
(declare-fun x226 () (_ BitVec 256))
(declare-fun x15 () Bool)
(declare-fun x253 () (_ BitVec 256))
(declare-fun x285 () (_ BitVec 256))
(declare-fun x235 () (_ BitVec 256))
(declare-fun x220 () (_ BitVec 256))
(declare-fun x18 () Bool)
(declare-fun x142 () (_ BitVec 256))
(declare-fun x298 () (_ BitVec 256))
(declare-fun x315 () (_ BitVec 256))
(declare-fun x101 () (_ BitVec 256))
(declare-fun x103 () (_ BitVec 256))
(declare-fun x41 ((_ BitVec 256) (_ BitVec 256)) (_ BitVec 256))
(declare-fun x86 () Bool)
(declare-fun x160 () (_ BitVec 256))
(declare-fun x98 () Bool)
(declare-fun x4 () (_ BitVec 256))
(declare-fun x366 () (_ BitVec 256))
(declare-fun x174 () (_ BitVec 256))
(declare-fun x118 () (_ BitVec 256))
(declare-fun x288 () Bool)
(declare-fun x259 () (_ BitVec 256))
(declare-fun x7 () (_ BitVec 256))
(declare-fun x200 () (_ BitVec 256))
(declare-fun x76 () (_ BitVec 256))
(declare-fun x168 () (_ BitVec 256))
(declare-fun x343 () (_ BitVec 256))
(declare-fun x290 () (_ BitVec 256))
(declare-fun x201 () Bool)
(declare-fun x191 () (_ BitVec 256))
(declare-fun x72 () Bool)
(declare-fun x407 () Bool)
(declare-fun x272 ((_ BitVec 256)) (_ BitVec 256))
(declare-fun x335 () (_ BitVec 256))
(declare-fun x368 () Bool)
(declare-fun x219 () Bool)
(declare-fun x93 () Bool)
(declare-fun x264 () (_ BitVec 256))
(declare-fun x223 () (_ BitVec 256))
(declare-fun x206 () (_ BitVec 256))
(declare-fun x294 () Bool)
(declare-fun x394 () (_ BitVec 256))
(declare-fun x312 () Bool)
(declare-fun x332 () (_ BitVec 256))
(declare-fun x238 ((_ BitVec 256) (_ BitVec 256) (_ BitVec 256)) (_ BitVec 256))
(declare-fun x321 ((_ BitVec 256) (_ BitVec 256)) (_ BitVec 256))
(declare-fun x370 () Bool)
(declare-fun x155 () (_ BitVec 256))
(declare-fun x94 () (_ BitVec 256))
(declare-fun x115 () (_ BitVec 256))
(declare-fun x45 () (_ BitVec 256))
(declare-fun x276 () Bool)
(declare-fun x162 () (_ BitVec 256))
(declare-fun x46 () (_ BitVec 256))
(declare-fun x274 () (_ BitVec 256))
(declare-fun x404 () (_ BitVec 256))
(declare-fun x416 () (_ BitVec 256))
(declare-fun x403 () (_ BitVec 256))
(declare-fun x51 () (_ BitVec 256))
(declare-fun x314 () Bool)
(declare-fun x247 ((_ BitVec 256)) (_ BitVec 256))
(declare-fun x317 () (_ BitVec 256))
(declare-fun x324 () (_ BitVec 256))
(declare-fun x173 () (_ BitVec 256))
(declare-fun x401 ((_ BitVec 256)) (_ BitVec 256))
(declare-fun x237 () (_ BitVec 256))
(declare-fun x59 () Bool)
(declare-fun x266 () (_ BitVec 256))
(declare-fun x88 () (_ BitVec 256))
(declare-fun x367 () (_ BitVec 256))
(declare-fun x210 () Bool)
(declare-fun x199 ((_ BitVec 256) (_ BitVec 256)) (_ BitVec 256))
(declare-fun x261 () (_ BitVec 256))
(declare-fun x420 () Bool)
(declare-fun x122 ((_ BitVec 256)) (_ BitVec 256))
(declare-fun x104 () (_ BitVec 256))
(declare-fun x411 () Bool)
(declare-fun x154 () Bool)
(declare-fun x300 ((_ BitVec 256)) (_ BitVec 256))
(declare-fun x126 () (_ BitVec 256))
(declare-fun x295 () Bool)
(declare-fun x13 () (_ BitVec 256))
(declare-fun x38 () (_ BitVec 256))
(declare-fun x140 () (_ BitVec 256))
(declare-fun x257 () (_ BitVec 256))
(declare-fun x301 () (_ BitVec 256))
(declare-fun x350 () (_ BitVec 256))
(declare-fun x252 () (_ BitVec 256))
(declare-fun x341 () (_ BitVec 256))
(declare-fun x358 () (_ BitVec 256))
(declare-fun x150 () (_ BitVec 256))
(declare-fun x372 () (_ BitVec 256))
(declare-fun x91 ((_ BitVec 256)) (_ BitVec 256))
(declare-fun x138 () (_ BitVec 256))
(declare-fun x222 () (_ BitVec 256))
(declare-fun x35 () Bool)
(declare-fun x3 () (_ BitVec 256))
(declare-fun x49 () Bool)
(declare-fun x323 () (_ BitVec 256))
(declare-fun x175 ((_ BitVec 256)) (_ BitVec 256))
(declare-fun x385 () Bool)
(declare-fun x1 () (_ BitVec 256))
(declare-fun x5 () Bool)
(declare-fun x405 () Bool)
(declare-fun x147 () (_ BitVec 256))
(declare-fun x216 () (_ BitVec 256))
(declare-fun x185 () (_ BitVec 256))
(declare-fun x182 () Bool)
(declare-fun x283 () (_ BitVec 256))
(declare-fun x299 () (_ BitVec 256))
(declare-fun x408 () (_ BitVec 256))
(declare-fun x202 () Bool)
(declare-fun x326 () (_ BitVec 256))
(declare-fun x89 ((_ BitVec 256)) (_ BitVec 256))
(declare-fun x245 () (_ BitVec 256))
(declare-fun x232 () (_ BitVec 256))
(declare-fun x212 () (_ BitVec 256))
(declare-fun x249 () (_ BitVec 256))
(declare-fun x54 () (_ BitVec 256))
(declare-fun x337 () (_ BitVec 256))
(declare-fun x8 () (_ BitVec 256))
(declare-fun x10 () (_ BitVec 256))
(declare-fun x159 () (_ BitVec 256))
(declare-fun x325 () (_ BitVec 256))
(declare-fun x277 () Bool)
(declare-fun x167 () (_ BitVec 256))
(declare-fun x180 () (_ BitVec 256))
(declare-fun x304 () (_ BitVec 256))
(declare-fun x181 () (_ BitVec 256))
(declare-fun x383 () (_ BitVec 256))
(declare-fun x415 () (_ BitVec 256))
(declare-fun x83 () (_ BitVec 256))
(declare-fun x373 () (_ BitVec 256))
(declare-fun x365 () (_ BitVec 256))
(declare-fun x246 () (_ BitVec 256))
(declare-fun x187 () Bool)
(declare-fun x144 () (_ BitVec 256))
(declare-fun x203 () Bool)
(declare-fun x56 () Bool)
(declare-fun x87 () Bool)
(declare-fun x90 () (_ BitVec 256))
(declare-fun x296 () (_ BitVec 256))
(declare-fun x195 () Bool)
(declare-fun x158 () (_ BitVec 256))
(declare-fun x340 () (_ BitVec 256))
(declare-fun x132 () Bool)
(declare-fun x388 () (_ BitVec 256))
(declare-fun x270 () (_ BitVec 256))
(declare-fun x352 () (_ BitVec 256))
(declare-fun x369 () (_ BitVec 256))
(declare-fun x362 () (_ BitVec 256))
(declare-fun x166 () (_ BitVec 256))
(declare-fun x57 () Bool)
(declare-fun x52 () (_ BitVec 256))
(declare-fun x129 () (_ BitVec 256))
(declare-fun x77 () (_ BitVec 256))
(declare-fun x307 () Bool)
(declare-fun x396 () Bool)
(declare-fun x125 () Bool)
(declare-fun x188 () (_ BitVec 256))
(declare-fun x139 () (_ BitVec 256))
(declare-fun x273 () Bool)
(declare-fun x11 () (_ BitVec 256))
(declare-fun x152 () (_ BitVec 256))
(declare-fun x278 () (_ BitVec 256))
(declare-fun x114 () Bool)
(declare-fun x165 () Bool)
(declare-fun x227 () (_ BitVec 256))
(declare-fun x133 () (_ BitVec 256))
(declare-fun x197 () (_ BitVec 256))
(declare-fun x381 () (_ BitVec 256))
(declare-fun x279 () (_ BitVec 256))
(declare-fun x39 () Bool)
(declare-fun x43 () (_ BitVec 256))
(declare-fun x28 () (_ BitVec 256))
(declare-fun x96 () Bool)
(declare-fun x204 () (_ BitVec 256))
(declare-fun x281 () Bool)
(declare-fun x55 () (_ BitVec 256))
(declare-fun x63 () (_ BitVec 256))
(declare-fun x170 () (_ BitVec 256))
(declare-fun x217 () Bool)
(declare-fun x2 () (_ BitVec 256))
(declare-fun x418 () (_ BitVec 256))
(declare-fun x205 () (_ BitVec 256))
(declare-fun x224 () (_ BitVec 256))
(declare-fun x318 () (_ BitVec 256))
(declare-fun x134 () (_ BitVec 256))
(declare-fun x386 () (_ BitVec 256))
(declare-fun x389 ((_ BitVec 256)) (_ BitVec 256))
(declare-fun x153 () (_ BitVec 256))
(declare-fun x229 () Bool)
(declare-fun x256 () (_ BitVec 256))
(declare-fun x161 () (_ BitVec 256))
(declare-fun x242 () (_ BitVec 256))
(declare-fun x119 () (_ BitVec 256))
(declare-fun x339 () (_ BitVec 256))
(declare-fun x292 () (_ BitVec 256))
(declare-fun x305 () (_ BitVec 256))
(declare-fun x30 () (_ BitVec 256))
(declare-fun x361 () (_ BitVec 256))
(declare-fun x255 () (_ BitVec 256))
(declare-fun x75 () (_ BitVec 256))
(declare-fun x379 ((_ BitVec 256)) (_ BitVec 256))
(declare-fun x260 ((_ BitVec 256)) (_ BitVec 256))
(declare-fun x353 () Bool)
(declare-fun x269 ((_ BitVec 256)) (_ BitVec 256))
(declare-fun x37 () Bool)
(declare-fun x123 () Bool)
(declare-fun x286 () (_ BitVec 256))
(declare-fun x157 () Bool)
(declare-fun x336 () (_ BitVec 256))
(declare-fun x297 () (_ BitVec 256))
(declare-fun x14 () Bool)
(declare-fun x400 () (_ BitVec 256))
(declare-fun x32 () (_ BitVec 256))
(declare-fun x110 () (_ BitVec 256))
(declare-fun x376 () (_ BitVec 256))
(declare-fun x263 () Bool)
(declare-fun x198 () Bool)
(declare-fun x390 () (_ BitVec 256))
(declare-fun x230 ((_ BitVec 256)) (_ BitVec 256))
(declare-fun x61 () (_ BitVec 256))
(declare-fun x397 () (_ BitVec 256))
(declare-fun x102 () Bool)
(declare-fun x213 () (_ BitVec 256))
(declare-fun x310 () (_ BitVec 256))
(declare-fun x309 () (_ BitVec 256))
(declare-fun x382 () Bool)
(declare-fun x293 () Bool)
(declare-fun x12 () (_ BitVec 256))
(declare-fun x209 () Bool)
(declare-fun x171 () (_ BitVec 256))
(declare-fun x156 () (_ BitVec 256))
(declare-fun x172 () Bool)
(declare-fun x306 () Bool)
(declare-fun x99 () (_ BitVec 256))
(declare-fun x137 () (_ BitVec 256))
(declare-fun x414 () (_ BitVec 256))
(declare-fun x387 () (_ BitVec 256))
(declare-fun x355 ((_ BitVec 256) (_ BitVec 256)) (_ BitVec 256))
(declare-fun x48 () (_ BitVec 256))
(declare-fun x189 () Bool)
(declare-fun x169 () (_ BitVec 256))
(declare-fun x384 () Bool)
(declare-fun x412 () Bool)
(declare-fun x406 () (_ BitVec 256))
(declare-fun x40 () Bool)
(declare-fun x143 () (_ BitVec 256))
(declare-fun x135 () (_ BitVec 256))
(declare-fun x363 () (_ BitVec 256))
(declare-fun x378 () (_ BitVec 256))
(declare-fun x371 () (_ BitVec 256))
(declare-fun x419 () (_ BitVec 256))
(declare-fun x233 () Bool)
(declare-fun x130 () (_ BitVec 256))
(declare-fun x228 () (_ BitVec 256))
(declare-fun x291 () (_ BitVec 256))
(declare-fun x208 () (_ BitVec 256))
(declare-fun x6 () Bool)
(declare-fun x402 () (_ BitVec 256))
(declare-fun x330 () (_ BitVec 256))
(declare-fun x81 ((_ BitVec 256)) (_ BitVec 256))
(declare-fun x356 () (_ BitVec 256))
(declare-fun x183 () Bool)
(declare-fun x44 () (_ BitVec 256))
(declare-fun x95 () (_ BitVec 256))
(declare-fun x117 () Bool)
(declare-fun x186 ((_ BitVec 256)) (_ BitVec 256))
(declare-fun x31 () (_ BitVec 256))
(declare-fun x225 () (_ BitVec 256))
(declare-fun x145 () (_ BitVec 256))
(declare-fun x105 () (_ BitVec 256))
(declare-fun x211 ((_ BitVec 256)) Bool)
(declare-fun x393 () (_ BitVec 256))
(declare-fun x177 () (_ BitVec 256))
(declare-fun x20 () (_ BitVec 256))
(declare-fun x47 () (_ BitVec 256))
(declare-fun x287 () (_ BitVec 256))
(declare-fun x111 ((_ BitVec 256)) (_ BitVec 256))
(declare-fun x218 () (_ BitVec 256))
(declare-fun x374 ((_ BitVec 256)) (_ BitVec 256))
(declare-fun x357 () (_ BitVec 256))
(declare-fun x311 () (_ BitVec 256))
(declare-fun x346 ((_ BitVec 256)) (_ BitVec 256))
(declare-fun x302 () (_ BitVec 256))
(declare-fun x27 () (_ BitVec 256))
(declare-fun x392 () Bool)
(declare-fun x327 () Bool)
(declare-fun x364 () (_ BitVec 256))
(declare-fun x313 () (_ BitVec 256))
(declare-fun x265 () (_ BitVec 256))
(declare-fun x121 () Bool)
(declare-fun x146 () (_ BitVec 256))
(declare-fun x271 () (_ BitVec 256))
(declare-fun x380 ((_ BitVec 256)) (_ BitVec 256))
(declare-fun x23 () Bool)
(declare-fun x66 () (_ BitVec 256))
(declare-fun x214 () (_ BitVec 256))
(declare-fun x58 () (_ BitVec 256))
(declare-fun x25 () (_ BitVec 256))
(declare-fun x221 () (_ BitVec 256))
(declare-fun x351 () (_ BitVec 256))
(declare-fun x333 () Bool)
(declare-fun x284 () Bool)
(declare-fun x322 () (_ BitVec 256))
(declare-fun x399 () (_ BitVec 256))
(declare-fun x176 ((_ BitVec 256)) (_ BitVec 256))
(define-fun x151 ((x267 (_ BitVec 256)) (x241 (_ BitVec 256))) Bool (= x267 (bvudiv (bvmul x241 x267) x241)))
(define-fun x19 ((x267 (_ BitVec 256)) (x241 (_ BitVec 256))) Bool (= x267 (bvsdiv (bvmul x267 x241) x241)))
(define-fun x127 ((x267 (_ BitVec 256)) (x241 (_ BitVec 256))) Bool (= x267 (bvsdiv (bvmul x241 x267) x241)))
(define-fun x319 ((x244 (_ BitVec 256))) (_ BitVec 256) (_ bv0 256))
(define-fun x164 ((x244 (_ BitVec 256))) (_ BitVec 256) (_ bv0 256))
(define-fun x303 ((x244 (_ BitVec 256))) (_ BitVec 256) (_ bv0 256))
(define-fun x240 ((x244 (_ BitVec 256))) (_ BitVec 256) (_ bv0 256))
(define-fun x207 ((x244 (_ BitVec 256))) (_ BitVec 256) (_ bv0 256))
(define-fun x243 ((x244 (_ BitVec 256))) (_ BitVec 256) (_ bv0 256))
(define-fun x163 ((x244 (_ BitVec 256))) (_ BitVec 256) (_ bv0 256))
(define-fun x409 ((x244 (_ BitVec 256))) (_ BitVec 256) (_ bv0 256))
(define-fun x338 ((x244 (_ BitVec 256))) (_ BitVec 256) (_ bv0 256))
(define-fun x92 ((x244 (_ BitVec 256))) (_ BitVec 256) (_ bv0 256))
(define-fun x289 ((x244 (_ BitVec 256))) (_ BitVec 256) (_ bv0 256))
(define-fun x9 ((x244 (_ BitVec 256))) (_ BitVec 256) (_ bv0 256))
(define-fun x231 ((x244 (_ BitVec 256))) (_ BitVec 256) (_ bv0 256))
(define-fun x196 ((x244 (_ BitVec 256))) (_ BitVec 256) (_ bv0 256))
(define-fun x69 ((x244 (_ BitVec 256))) (_ BitVec 256) (_ bv0 256))
(define-fun x108 ((x244 (_ BitVec 256))) (_ BitVec 256) (_ bv0 256))
(define-fun x78 ((x244 (_ BitVec 256))) (_ BitVec 256) (_ bv0 256))
(define-fun x116 ((x244 (_ BitVec 256))) (_ BitVec 256) (_ bv0 256))
(define-fun x64 ((x244 (_ BitVec 256))) (_ BitVec 256) (_ bv0 256))
(define-fun x417 ((x244 (_ BitVec 256))) (_ BitVec 256) (_ bv0 256))
(define-fun x349 ((x244 (_ BitVec 256))) (_ BitVec 256) (_ bv0 256))
(define-fun x254 ((x244 (_ BitVec 256))) (_ BitVec 256) (_ bv0 256))
(define-fun x275 ((x244 (_ BitVec 256))) (_ BitVec 256) (_ bv0 256))
(define-fun x17 ((x244 (_ BitVec 256))) (_ BitVec 256) (_ bv0 256))
(define-fun x97 ((x244 (_ BitVec 256))) (_ BitVec 256) (_ bv0 256))
(define-fun x320 ((x244 (_ BitVec 256))) (_ BitVec 256) (_ bv0 256))
(define-fun x68 ((x244 (_ BitVec 256))) (_ BitVec 256) (_ bv0 256))
(define-fun x60 ((x244 (_ BitVec 256))) (_ BitVec 256) (ite (= x244 x271) x287 (x122 x244)))
(define-fun x377 ((x244 (_ BitVec 256))) (_ BitVec 256) (ite (= x244 x155) x279 (x60 x244)))
(define-fun x410 ((x244 (_ BitVec 256))) (_ BitVec 256) (ite (= x244 (_ bv512 256)) (_ bv50942633119752846454219349998365661925608737367104304655302372697894809501696 256) (x319 x244)))
(define-fun x112 ((x244 (_ BitVec 256))) (_ BitVec 256) (ite (= x244 (_ bv516 256)) x155 (x410 x244)))
(define-fun x120 ((x244 (_ BitVec 256))) (_ BitVec 256) (ite (= x244 (_ bv0 256)) x153 (x346 x244)))
(define-fun x53 ((x244 (_ BitVec 256))) (_ BitVec 256) (ite (= (_ bv512 256) x244) x153 (x112 x244)))
(define-fun x79 ((x244 (_ BitVec 256))) (_ BitVec 256) (ite (= x244 (_ bv512 256)) (_ bv9926590759366731133184464140911154174177107315504433282334229972011911741440 256) (x53 x244)))
(define-fun x62 ((x244 (_ BitVec 256))) (_ BitVec 256) (ite (= (_ bv516 256) x244) x188 (x79 x244)))
(define-fun x149 ((x244 (_ BitVec 256))) (_ BitVec 256) (ite (= x244 (_ bv548 256)) x185 (x62 x244)))
(define-fun x84 ((x244 (_ BitVec 256))) (_ BitVec 256) (ite (= x244 (_ bv580 256)) x339 (x149 x244)))
(define-fun x345 ((x244 (_ BitVec 256))) (_ BitVec 256) (ite (and (bvult x244 (_ bv544 256)) (bvuge x244 (_ bv512 256))) (x374 (bvadd x244 (bvneg (_ bv512 256)))) (x84 x244)))
(define-fun x190 ((x244 (_ BitVec 256))) (_ BitVec 256) (ite x96 (x345 x244) (x84 x244)))
(define-fun x148 ((x244 (_ BitVec 256))) (_ BitVec 256) (ite (= (_ bv768 256) x244) x10 (x190 x244)))
(define-fun x308 ((x244 (_ BitVec 256))) (_ BitVec 256) (ite (= x244 (_ bv800 256)) x55 (x148 x244)))
(define-fun x282 ((x244 (_ BitVec 256))) (_ BitVec 256) (ite (= (_ bv832 256) x244) x206 (x308 x244)))
(define-fun x184 ((x244 (_ BitVec 256))) (_ BitVec 256) (ite (= x244 (_ bv864 256)) x188 (x282 x244)))
(define-fun x131 ((x244 (_ BitVec 256))) (_ BitVec 256) (ite (= x244 (_ bv896 256)) x224 (x184 x244)))
(define-fun x360 ((x244 (_ BitVec 256))) (_ BitVec 256) (ite (= (_ bv928 256) x244) x66 (x131 x244)))
(define-fun x136 ((x244 (_ BitVec 256))) (_ BitVec 256) (ite x288 (x319 x244) (x360 x244)))
(define-fun x239 ((x244 (_ BitVec 256))) (_ BitVec 256) (ite (= x244 x118) (_ bv50942633119752846454219349998365661925608737367104304655302372697894809501696 256) (x136 x244)))
(define-fun x179 ((x244 (_ BitVec 256))) (_ BitVec 256) (ite (= x46 x244) x155 (x239 x244)))
(define-fun x329 ((x244 (_ BitVec 256))) (_ BitVec 256) (ite (= x244 (_ bv0 256)) x400 (x175 x244)))
(define-fun x375 ((x244 (_ BitVec 256))) (_ BitVec 256) (ite (= x244 x118) x400 (x179 x244)))
(define-fun x328 ((x244 (_ BitVec 256))) (_ BitVec 256) (ite (= x244 x133) (_ bv79296723274733526634128096404112061805888054070845613866591879340676341563392 256) (x375 x244)))
(define-fun x215 ((x244 (_ BitVec 256))) (_ BitVec 256) (ite (= x147 x244) x155 (x328 x244)))
(define-fun x70 ((x244 (_ BitVec 256))) (_ BitVec 256) (ite (= x90 x244) x278 (x215 x244)))
(define-fun x178 ((x244 (_ BitVec 256))) (_ BitVec 256) (ite (= x244 x383) x270 (x70 x244)))
(define-fun x344 ((x244 (_ BitVec 256))) (_ BitVec 256) (ite (and (bvult x244 x133) (bvule x133 x244)) (x230 (bvadd x244 (bvneg x133))) (x178 x244)))
(define-fun x33 ((x244 (_ BitVec 256))) (_ BitVec 256) (ite (= x340 x244) x169 (x344 x244)))
(define-fun x34 ((x244 (_ BitVec 256))) (_ BitVec 256) (ite x392 (x344 x244) (x33 x244)))
(define-fun x16 ((x244 (_ BitVec 256))) (_ BitVec 256) (ite (= x283 x244) x270 (x34 x244)))
(define-fun x73 ((x244 (_ BitVec 256))) (_ BitVec 256) (ite (= x244 x283) (_ bv91893037931264823478789666111544828899574148870504437229209701178949438013440 256) (x16 x244)))
(define-fun x141 ((x244 (_ BitVec 256))) (_ BitVec 256) (ite (= x406 x244) x155 (x73 x244)))
(define-fun x67 ((x244 (_ BitVec 256))) (_ BitVec 256) (ite (= x318 x244) x143 (x141 x244)))
(define-fun x50 ((x244 (_ BitVec 256))) (_ BitVec 256) (ite (= x244 x301) x138 (x67 x244)))
(define-fun x128 ((x244 (_ BitVec 256))) (_ BitVec 256) (ite (= x142 x244) x1 (x50 x244)))
(define-fun x21 ((x244 (_ BitVec 256))) (_ BitVec 256) (ite (and (bvule x283 x244) (bvugt (bvadd (_ bv32 256) x283) x244)) (x380 (bvadd x244 (bvneg x283))) (x128 x244)))
(define-fun x395 ((x244 (_ BitVec 256))) (_ BitVec 256) (ite (= x397 x244) x99 (x196 x244)))
(define-fun x193 ((x244 (_ BitVec 256))) (_ BitVec 256) (ite (= x244 x8) x138 (x395 x244)))
(define-fun x24 ((x244 (_ BitVec 256))) (_ BitVec 256) (ite (= x283 x244) x26 (x69 x244)))
(define-fun x280 ((x244 (_ BitVec 256))) (_ BitVec 256) (ite (= x244 x245) x152 (x193 x244)))
(define-fun x316 ((x146 (_ BitVec 256))) Bool (or (not (and (bvuge (_ bv115792089237316195423570985008687907853269984665640564039457584007913129639935 256) x146) (bvuge x146 (_ bv0 256)))) (not (and (bvult x146 x52) (bvuge x146 (_ bv0 256)))) (= (x111 (x401 x146)) (bvadd x146 (_ bv1 256)))))
(define-fun x334 ((x181 (_ BitVec 256))) Bool (or (and (and (bvule (_ bv1 256) (x111 x181)) (= x181 (x401 (bvadd (bvneg (_ bv1 256)) (x111 x181))))) (bvule (x111 x181) x52)) (= (x111 x181) (_ bv0 256)) (not (and (bvuge (_ bv115792089237316195423570985008687907853269984665640564039457584007913129639935 256) x181) (bvuge x181 (_ bv0 256))))))
(define-fun x413 ((x274 (_ BitVec 256)) (x265 (_ BitVec 256))) Bool (or (not (and (bvuge x274 (_ bv0 256)) (bvule x274 (_ bv1461501637330902918203684832716283019655932542975 256)))) (or (not (and (bvule x265 (_ bv115792089237316195423570985008687907853269984665640564039457584007913129639935 256)) (bvuge x265 (_ bv0 256)))) (not (and (bvuge x265 (_ bv0 256)) (bvult x265 (x272 x274)))) (= (bvadd (_ bv1 256) x265) (x199 x274 (x41 x274 x265))))))
(define-fun x100 ((x25 (_ BitVec 256)) (x337 (_ BitVec 256))) Bool (or (not (and (bvule (_ bv0 256) x25) (bvule x25 (_ bv1461501637330902918203684832716283019655932542975 256)))) (or (not (and (bvuge (_ bv115792089237316195423570985008687907853269984665640564039457584007913129639935 256) x337) (bvule (_ bv0 256) x337))) (= (_ bv0 256) (x199 x25 x337)) (and (and (= (x41 x25 (bvadd (x199 x25 x337) (bvneg (_ bv1 256)))) x337) (bvule (_ bv1 256) (x199 x25 x337))) (bvuge (x272 x25) (x199 x25 x337))))))
(define-fun x106 ((x177 (_ BitVec 256)) (x43 (_ BitVec 256))) Bool (or (or (not (and (bvule (_ bv0 256) x43) (bvuge (_ bv115792089237316195423570985008687907853269984665640564039457584007913129639935 256) x43))) (not (and (bvult x43 (x89 x177)) (bvuge x43 (_ bv0 256)))) (= (bvadd (_ bv1 256) x43) (x355 x177 (x321 x177 x43)))) (not (and (bvuge x177 (_ bv0 256)) (bvuge (_ bv1461501637330902918203684832716283019655932542975 256) x177)))))
(define-fun x22 ((x222 (_ BitVec 256)) (x191 (_ BitVec 256))) Bool (or (not (and (bvuge (_ bv1461501637330902918203684832716283019655932542975 256) x222) (bvuge x222 (_ bv0 256)))) (or (= (x355 x222 x191) (_ bv0 256)) (and (and (= x191 (x321 x222 (bvadd (bvneg (_ bv1 256)) (x355 x222 x191)))) (bvuge (x355 x222 x191) (_ bv1 256))) (bvuge (x89 x222) (x355 x222 x191))) (not (and (bvuge x191 (_ bv0 256)) (bvuge (_ bv115792089237316195423570985008687907853269984665640564039457584007913129639935 256) x191))))))
(define-fun x359 ((x115 (_ BitVec 256)) (x58 (_ BitVec 256))) Bool (or (not (and (bvuge (_ bv1461501637330902918203684832716283019655932542975 256) x115) (bvule (_ bv0 256) x115))) (or (not (or (not (= (x199 x115 x58) (_ bv0 256))) (not (= (_ bv0 256) (x355 x115 x58))))) (not (= (x111 x58) (_ bv0 256))) (not (and (bvule (_ bv0 256) x58) (bvule x58 (_ bv115792089237316195423570985008687907853269984665640564039457584007913129639935 256)))))))
(define-fun x42 ((x223 (_ BitVec 256))) Bool (or (bvult (x272 x223) (_ bv340282366920938463463374607431768211455 256)) (not (and (bvule x223 (_ bv1461501637330902918203684832716283019655932542975 256)) (bvuge x223 (_ bv0 256))))))
(define-fun x29 ((x213 (_ BitVec 256))) Bool (or (not (and (bvuge (_ bv1461501637330902918203684832716283019655932542975 256) x213) (bvule (_ bv0 256) x213))) (bvugt (_ bv340282366920938463463374607431768211455 256) (x89 x213))))
(define-fun x268 () Bool true)
(define-fun x113 () Bool x268)
(define-fun x348 () Bool true)
(define-fun x82 () Bool x348)
(define-fun x251 () Bool true)
(define-fun x342 () Bool x251)
(define-fun x258 () Bool true)
(define-fun x354 () Bool x258)
(define-fun x124 () Bool true)
(define-fun x71 () Bool x124)
(define-fun x331 () Bool true)
(define-fun x391 () Bool x331)
(define-fun x262 () Bool true)
(define-fun x36 () Bool true)
(define-fun x236 () Bool (and x36 x262))
(define-fun x398 () Bool true)
(define-fun x107 () Bool x398)
(define-fun x250 () Bool true)
(define-fun x347 () Bool x250)
(assert (= (x176 (_ bv115792089237316195423570985008687907853269984665640564039457584007913129639935 256)) (_ bv0 256)))
(assert (= (and x407 x368) x210))
(assert (= (x379 (x238 (_ bv64 256) x278 (_ bv104 256))) x278))
(assert (=> (bvuge (_ bv10000 256) x393) (= (_ bv0 256) (x176 x393))))
(assert (bvugt (x238 (_ bv64 256) x278 (_ bv103 256)) (_ bv10000 256)))
(assert (= (=> (and (and (bvuge (_ bv1461501637330902918203684832716283019655932542975 256) x143) (= (_ bv36 256) x74) (= x419 (bvadd (_ bv32 256) x46)) (= (= (_ bv0 256) x138) x121) (bvule (_ bv1 256) x143) (= (_ bv1 256) x365) (= (bvadd x118 (_ bv64 256)) x2) (x151 x7 (_ bv1000000000000000000 256)) (= x249 (x186 x143)) (= x143 x155) (= x159 (bvadd (bvneg (_ bv1 256)) x291)) (= x156 (bvadd x2 (_ bv64 256))) (bvule (_ bv1 256) x291) (bvuge x7 (_ bv1 256)) (= (bvadd x104 (bvneg x351)) x7) (bvuge x416 (_ bv1 256)) (= x221 (bvadd (bvneg x118) x419)) (= x252 (_ bv1000000000000000000 256)) (not (bvugt x38 (bvadd x299 x38))) (= x364 (_ bv1000000000000000000 256)) (bvule (_ bv1 256) x249) (= (_ bv36 256) x221) (= (x186 x155) x144) (bvuge x309 (_ bv1 256)) (= x400 (x81 x32)) (= x155 x166) (bvuge x144 (_ bv1 256)) (= (bvadd (_ bv4 256) x118) x46) (= x214 (_ bv1889567281 256)) (= x291 (bvudiv x416 x309)) (= x32 (x238 (_ bv64 256) x155 (_ bv103 256))) (= x356 x166) (= (_ bv50942633119752846454219349998365661925608737367104304655302372697894809501696 256) x381) (= (bvmul (_ bv1000000000000000000 256) x7) x416) (= x10 x310) (= x104 (bvadd x299 x38)) (not (bvult x104 x351)) (= (bvadd x156 (_ bv64 256)) x63) (= (x375 x118) x38)) (or (and (and (= x167 x399) (= x167 (bvmul x138 (_ bv1000000000000000000 256))) (x151 x138 (_ bv1000000000000000000 256))) (not x121)) (and x121 (= (_ bv0 256) x399)))) x263) x281))
(assert (= (x176 (_ bv39341301877480157781710804024396230103289065588583741745104145964028735258624 256)) (_ bv0 256)))
(assert (not (x211 (x238 (_ bv64 256) x278 (_ bv103 256)))))
(assert (=> (bvule x155 (_ bv10000 256)) (= (x176 x155) (_ bv0 256))))
(assert (= (=> (and (or (and (and (= x161 x330) (= x161 (bvmul x168 x55)) (x151 x168 x55)) (not x15)) (and (= (_ bv0 256) x330) x15)) (and (= x15 (= x168 (_ bv0 256))) (= (bvadd x185 x55) x224) (= x47 (_ bv576 256)) (= (_ bv1000000000000000000 256) x369) (= (bvudiv x332 (_ bv1000000000000000000 256)) x55) (not (bvugt x55 (bvadd x185 x55))))) x201) x412))
(assert (not (x211 (x238 (_ bv64 256) x155 (_ bv103 256)))))
(assert (= x96 (and x117 x6)))
(assert (= (_ bv64 256) (x269 (x238 (_ bv64 256) x278 (_ bv104 256)))))
(assert (= (x238 (_ bv64 256) x1 x208) (x176 (x238 (_ bv64 256) x1 x208))))
(assert (= (x176 (_ bv1000000000000000000 256)) (_ bv0 256)))
(assert (= x80 (and x382 x121)))
(assert (=> (bvule x386 (_ bv10000 256)) (= (x176 x386) (_ bv0 256))))
(assert (not (x211 (x238 (_ bv64 256) x1 x208))))
(assert (x211 (_ bv57896044618658097711785492504343953926634992332820282019728792003956564819967 256)))
(assert (= x384 (and x385 (not x37))))
(assert (= x392 (and x293 x102)))
(assert (x211 (_ bv115792089237316195423570985008687907853269984665640564039457584007913129639935 256)))
(assert (= (x176 (_ bv340282366920938463463374607431768211455 256)) (_ bv0 256)))
(assert (= (or x202 x80) x102))
(assert (= x407 (or x96 x72)))
(assert (= (_ bv103 256) (x260 (x238 (_ bv64 256) x155 (_ bv103 256)))))
(assert (= (x176 (_ bv79296723274733526634128096404112061805888054070845613866591879340676341563392 256)) (_ bv0 256)))
(assert (= (_ bv64 256) (x269 (x238 (_ bv64 256) x155 (_ bv103 256)))))
(assert (x211 (_ bv50942633119752846454219349998365661925608737367104304655302372697894809501696 256)))
(assert (x211 (_ bv1461501637330902918203684832716283019655932542975 256)))
(assert (= x155 (x379 (x238 (_ bv64 256) x155 (_ bv103 256)))))
(assert (=> (bvuge (_ bv10000 256) x1) (= (x176 x1) (_ bv0 256))))
(assert (=> (bvule x3 (_ bv10000 256)) (= (_ bv0 256) (x176 x3))))
(assert (= (_ bv0 256) (x176 (_ bv4294967295 256))))
(assert (x211 (_ bv91893037931264823478789666111544828899574148870504437229209701178949438013440 256)))
(assert (= x288 (and x86 x87)))
(assert (= x411 (or x384 x194)))
(assert (= x307 (=> (and (and (= x1 x216) (and (and (bvuge (_ bv1461501637330902918203684832716283019655932542975 256) x278) (= x216 x271) (= x278 (bvand (_ bv1461501637330902918203684832716283019655932542975 256) x200)) (= x137 x287) (= (_ bv2519286136 256) x404) (= (x186 x155) x388) (= (x122 x271) x287) (= (x60 x155) x158) (bvuge x278 (_ bv1 256)) (= x87 (= x10 x95)) (not (= x227 (_ bv2 256))) (= x279 x158) (= x371 x255) (bvule (_ bv1 256) x388)) (= x10 x94))) (and (not (= x174 x155)) (bvule (_ bv0 256) x257) (not (= x3 x174)) (= x200 x220) x219 (not (= x242 x3)) (not (= x393 x174)) (not (= x171 x393)) (= x354 x314) (= (bvugt (x186 x174) (_ bv0 256)) x312) x59 (bvuge (_ bv1461501637330902918203684832716283019655932542975 256) x386) x189 (bvule (_ bv1 256) x305) (= x14 x236) x203 (not (= x65 x3)) (bvule x12 (_ bv115792089237316195423570985008687907853269984665640564039457584007913129639935 256)) (= x138 (x91 (_ bv36 256))) x157 (bvule (_ bv0 256) x12) (= x171 x285) x14 (bvule x28 (_ bv1461501637330902918203684832716283019655932542975 256)) (not (= x242 x155)) (not (= x322 x65)) (= x113 x189) x56 (= x119 x65) x353 (bvuge x367 (_ bv1 256)) (not (= x65 x155)) (= x342 x59) (= x371 x138) (= (bvugt (x186 x3) (_ bv0 256)) x273) (= (bvugt (x186 x386) (_ bv0 256)) x198) (not (= x322 x3)) (bvule (_ bv1 256) x155) (bvuge x171 (_ bv1 256)) (not (= x386 x393)) (bvuge x414 (_ bv0 256)) (bvuge x304 (_ bv0 256)) x312 (bvule x242 (_ bv1461501637330902918203684832716283019655932542975 256)) (bvule (_ bv0 256) x418) (not (= x155 x322)) (bvuge x103 (_ bv68 256)) (bvuge x285 (_ bv1 256)) x314 (bvuge x302 (_ bv0 256)) (not (= x386 x155)) (bvuge (_ bv1461501637330902918203684832716283019655932542975 256) x367) (bvule x322 (_ bv1461501637330902918203684832716283019655932542975 256)) (= x203 x71) (not (= x174 x171)) (bvuge (_ bv1461501637330902918203684832716283019655932542975 256) x3) (bvule (_ bv1 256) x242) (not (= x322 x386)) (not (= x393 x322)) (bvule x129 (_ bv4294967295 256)) x420 (= x248 (_ bv0 256)) (bvuge (_ bv115792089237316195423570985008687907853269984665640564039457584007913129639935 256) x414) (bvuge (_ bv1461501637330902918203684832716283019655932542975 256) x65) (not (= x386 x171)) (bvuge (_ bv1461501637330902918203684832716283019655932542975 256) x305) (bvuge (_ bv1461501637330902918203684832716283019655932542975 256) x304) (not (= x65 x393)) (bvule x212 (_ bv1461501637330902918203684832716283019655932542975 256)) (= (bvugt (x186 x393) (_ bv0 256)) x56) (= x82 x420) (bvule x216 (_ bv1461501637330902918203684832716283019655932542975 256)) (= x172 (bvult (_ bv0 256) (x186 x322))) (not (= x171 x65)) x109 (not (= x3 x171)) (bvule (_ bv0 256) x216) (not (= x393 x155)) (bvuge (_ bv115792089237316195423570985008687907853269984665640564039457584007913129639935 256) x257) (not (= x65 x174)) (bvuge x322 (_ bv1 256)) (not (= x322 x242)) (bvule (_ bv1 256) x174) (not (= x242 x174)) (not (= x393 x3)) (bvuge (_ bv115792089237316195423570985008687907853269984665640564039457584007913129639935 256) x45) (bvuge (_ bv1461501637330902918203684832716283019655932542975 256) x285) (bvuge x393 (_ bv1 256)) (= (bvugt (x186 x171) (_ bv0 256)) x209) (not (= x3 x155)) (not (= x386 x3)) x209 (= x212 x171) (bvule (_ bv0 256) x94) (not (= x393 x242)) (not (= x155 x171)) (bvuge x45 (_ bv0 256)) (not (= x242 x65)) (not (= x386 x174)) (= x200 (x91 (_ bv4 256))) (bvuge x386 (_ bv1 256)) (bvule x119 (_ bv1461501637330902918203684832716283019655932542975 256)) (bvule (_ bv1 256) x212) (bvule x171 (_ bv1461501637330902918203684832716283019655932542975 256)) (bvuge x65 (_ bv1 256)) (bvule (_ bv1 256) x3) (= x367 x242) (bvuge (_ bv1461501637330902918203684832716283019655932542975 256) x393) (bvuge x119 (_ bv1 256)) (= x109 (bvult (_ bv0 256) (x186 x65))) (not (= x242 x386)) (bvule (_ bv0 256) x28) (bvuge (_ bv1461501637330902918203684832716283019655932542975 256) x174) (bvule x94 (_ bv115792089237316195423570985008687907853269984665640564039457584007913129639935 256)) (bvuge (_ bv115792089237316195423570985008687907853269984665640564039457584007913129639935 256) x302) x198 (= x219 (bvugt (x186 x155) (_ bv0 256))) (not (= x242 x171)) (bvule (_ bv0 256) x129) (bvule x155 (_ bv1461501637330902918203684832716283019655932542975 256)) x273 (not (= x322 x171)) (= x386 x305) (not (= x386 x65)) (bvule x418 (_ bv1461501637330902918203684832716283019655932542975 256)) (bvuge (_ bv57896044618658097711785492504343953926634992332820282019728792003956564819967 256) x103) x172 (not (= x174 x322)) (= (bvugt (x186 x242) (_ bv0 256)) x353) (= x157 x391))) (and (=> (and (not x87) (and (or (and (= x256 x298) (not x117)) (and x117 (and (bvuge (_ bv4294967295 256) x403) (bvule (_ bv32 256) x403) (= (_ bv1 256) x298)))) (and (bvule (_ bv32 256) x403) (bvuge (_ bv1461501637330902918203684832716283019655932542975 256) x143) (= x226 (_ bv512 256)) (= (_ bv36 256) x218) (= (_ bv50942633119752846454219349998365661925608737367104304655302372697894809501696 256) x145) (= x188 (x53 (_ bv512 256))) (= x101 x75) (= (bvult (_ bv0 256) x256) x117) (bvuge x180 (_ bv1 256)) (bvule (_ bv1 256) x394) (= x394 (x186 x290)) (= x234 (_ bv1889567281 256)) (= (x186 x143) x180) (bvule (_ bv1 256) x373) (= x155 x101) (bvule (_ bv1 256) x143) (bvule x290 (_ bv1461501637330902918203684832716283019655932542975 256)) (= x153 (x81 x232)) (= x143 x155) (= x232 (x238 (_ bv64 256) x155 (_ bv103 256))) (= x373 (x186 x155)) (= x315 (_ bv512 256))))) x333) (=> (and (and (= x299 x185) (= x310 x95) (= x118 (_ bv128 256)) (= x351 x339)) x87) x281)))))
(assert (x211 (_ bv39341301877480157781710804024396230103289065588583741745104145964028735258624 256)))
(assert (= (x238 (_ bv64 256) x155 (_ bv103 256)) (x176 (x238 (_ bv64 256) x155 (_ bv103 256)))))
(assert (= x294 (and x407 (not x368))))
(assert (= (=> (and (bvuge (_ bv4294967295 256) x4) x327 (= x126 (x193 x245)) (bvuge x335 (_ bv1 256)) (= (bvadd x76 (bvneg x270)) x390) (= (bvadd x283 (_ bv4 256)) x406) (= (bvadd (_ bv64 256) x162) x378) (= (bvugt (_ bv32 256) (bvadd x313 (bvneg (_ bv128 256)))) x217) (= (x186 x143) x297) (= (bvadd (_ bv36 256) x283) x397) (not (bvugt x270 x76)) (= (bvadd (_ bv32 256) x318) x301) (= x77 (x21 x283)) (= x245 (bvadd x283 (_ bv32 256))) (= (bvand x126 (_ bv26959946667150639794667015087019630673637144422540572481103610249215 256)) x350) (= x318 (bvadd (_ bv32 256) x406)) (= (_ bv0 256) x173) (= (bvuge (x300 x155) x235) x182) (bvule (_ bv128 256) x313) (bvuge x366 (_ bv1 256)) (= x26 (bvadd (bvneg (_ bv32 256)) x31)) (= (bvadd x378 (_ bv64 256)) x283) (= (bvadd x301 (_ bv32 256)) x142) (= x335 (x186 x228)) (= (bvand x77 (_ bv1461501637330902918203684832716283019655932542975 256)) x99) (= (x247 x155) x235) (bvule (_ bv1 256) x297) (= x313 (x24 x283)) (= (x238 (_ bv64 256) x278 (_ bv103 256)) x352) (= (x247 x228) x197) (= (bvadd (bvneg (_ bv39341301877480157781710804024396230103289065588583741745104145964028735258624 256)) x350) x152) (not (bvult x309 x270)) (= (bvadd (_ bv32 256) x8) x361) (= (x81 x352) x76) (= (bvadd (bvneg x270) x309) x130) (= x8 (bvadd (_ bv32 256) x397)) (= (bvadd x361 (bvneg x283)) x31) (= (= (x300 x228) x197) x327) (bvuge (_ bv1461501637330902918203684832716283019655932542975 256) x143) (= true x18) (bvuge x76 (_ bv1 256)) (bvule (_ bv32 256) x4) x182) x217) x114))
(assert (= (=> (and (or (and x187 (= (_ bv0 256) x160)) (and (not x187) (and (= x160 x30) (x151 x135 x376) (= (bvmul x135 x376) x30)))) (and (= x27 (_ bv1000000000000000000 256)) (= x83 (bvudiv x330 (_ bv1000000000000000000 256))) (= (= (_ bv0 256) x135) x187) (= x139 (_ bv640 256)) (= x66 (bvadd x83 x339)) (not (bvugt x83 (bvadd x83 x339))))) x57) x201))
(assert x347)
(assert (not (x211 (x238 (_ bv64 256) x278 (_ bv104 256)))))
(assert (= x370 (and x165 (not x187))))
(assert (=> (bvuge (_ bv10000 256) x143) (= (x176 x143) (_ bv0 256))))
(assert (x211 (_ bv79296723274733526634128096404112061805888054070845613866591879340676341563392 256)))
(assert (= (and x411 (not x15)) x98))
(assert (x211 (_ bv26959946667150639794667015087019630673637144422540572481103610249215 256)))
(assert x107)
(assert (= (x269 (x238 (_ bv64 256) x1 x208)) (_ bv64 256)))
(assert (bvugt (_ bv340282366920938463463374607431768211455 256) x52))
(assert (= (x379 (x238 (_ bv64 256) x278 (_ bv103 256))) x278))
(assert (= x1 (x379 (x238 (_ bv64 256) x1 x208))))
(assert (= x6 (and (not x87) x86)))
(assert (x211 (_ bv9926590759366731133184464140911154174177107315504433282334229972011911741440 256)))
(assert (= (=> (and (and (= (= x135 (_ bv0 256)) x37) (= x311 (_ bv1000000000000000000 256))) (or (and (not x37) (and (x151 x135 x185) (= (bvmul x135 x185) x387) (= x332 x387))) (and x37 (= (_ bv0 256) x332)))) x412) x5))
(assert (= (x260 (x238 (_ bv64 256) x278 (_ bv103 256))) (_ bv103 256)))
(assert (not x307))
(assert (x211 (_ bv340282366920938463463374607431768211455 256)))
(assert (=> (bvuge (_ bv10000 256) x242) (= (x176 x242) (_ bv0 256))))
(assert (=> (bvuge (_ bv10000 256) x228) (= (_ bv0 256) (x176 x228))))
(assert (x211 (_ bv2519286136 256)))
(assert (x211 (_ bv1000000000000000 256)))
(assert (=> (bvule x290 (_ bv10000 256)) (= (_ bv0 256) (x176 x290))))
(assert (= (_ bv0 256) (x176 (_ bv9926590759366731133184464140911154174177107315504433282334229972011911741440 256))))
(assert (= x263 (=> (and (and (bvule (_ bv1 256) x264) x132 (bvule (_ bv1 256) x54) (bvule x228 (_ bv1461501637330902918203684832716283019655932542975 256)) (= (bvadd x159 x399) x54) (bvule (_ bv1 256) x270) (bvuge (_ bv4294967295 256) x150) (= (bvadd (_ bv32 256) x147) x90) (= (bvadd (_ bv64 256) x63) x133) (not (bvugt x399 (bvadd x399 x159))) (= (= (x247 x228) x20) x40) (= x323 (x377 x155)) (= (bvadd x90 (_ bv32 256)) x383) (= (bvule x323 (x247 x155)) x132) (bvule (_ bv1 256) x372) (= x293 (= x278 x1)) (= x147 (bvadd x133 (_ bv4 256))) x40 (= x20 (x377 x228)) (= (x186 x228) x372) (= (bvudiv x54 x291) x270)) (or (and x293 (= x133 x162)) (and (not x293) (and (bvuge x1 (_ bv1 256)) (not (bvugt x270 x259)) (= (x238 (_ bv64 256) x1 x208) x266) (bvuge x259 (_ bv1 256)) (= (bvadd x259 (bvneg x270)) x169) (= x259 (x389 x266)) (= (x238 (_ bv64 256) x278 (_ bv104 256)) x208) (bvuge (_ bv1461501637330902918203684832716283019655932542975 256) x1) (= x340 (bvadd (_ bv64 256) x133)) (= x162 x340))))) x114)))
(assert (= x154 (and x102 (not x293))))
(assert (= (or x370 x295) x49))
(assert (= (and x37 x385) x194))
(assert (x211 (_ bv1889567281 256)))
(assert (=> (bvule x322 (_ bv10000 256)) (= (_ bv0 256) (x176 x322))))
(assert (=> (bvule x271 (_ bv10000 256)) (= (_ bv0 256) (x176 x271))))
(assert (= (x176 (x238 (_ bv64 256) x278 (_ bv103 256))) (x238 (_ bv64 256) x278 (_ bv103 256))))
(assert (= (x176 (_ bv1889567281 256)) (_ bv0 256)))
(assert (= (_ bv64 256) (x269 (x238 (_ bv64 256) x278 (_ bv103 256)))))
(assert (= x202 (and x382 (not x121))))
(assert (= (_ bv0 256) (x176 (_ bv26959946667150639794667015087019630673637144422540572481103610249215 256))))
(assert (= x382 (or x288 x49)))
(assert (= true x86))
(assert (= (or x392 x154) x192))
(assert (= x333 (=> (and (and (= (bvadd x10 (bvneg x95)) x324) (bvuge (_ bv1000000000000000 256) x11) (= x11 (x190 (_ bv512 256))) (bvule (_ bv1 256) x298) (not (bvugt x95 x10)) (= x343 (_ bv512 256)) (= (= (_ bv0 256) x11) x368)) (or (and (= (_ bv0 256) x135) x368) (and (not x368) (and (= x88 x135) (= x88 (bvmul x324 x11)) (x151 x11 x324))))) x5)))
(assert (=> (bvule x174 (_ bv10000 256)) (= (_ bv0 256) (x176 x174))))
(assert (= (x260 (x238 (_ bv64 256) x278 (_ bv104 256))) (_ bv104 256)))
(assert (bvult (_ bv10000 256) (x238 (_ bv64 256) x1 x208)))
(assert (x211 (_ bv4294967295 256)))
(assert (= (or x210 x294) x385))
(assert (= (x176 (_ bv57896044618658097711785492504343953926634992332820282019728792003956564819967 256)) (_ bv0 256)))
(assert (bvugt (x238 (_ bv64 256) x155 (_ bv103 256)) (_ bv10000 256)))
(assert (= (_ bv0 256) (x176 (_ bv50942633119752846454219349998365661925608737367104304655302372697894809501696 256))))
(assert (= (x238 (_ bv64 256) x278 (_ bv104 256)) (x176 (x238 (_ bv64 256) x278 (_ bv104 256)))))
(assert (= (and x6 (not x117)) x72))
(assert (bvult x110 (_ bv340282366920938463463374607431768211455 256)))
(assert (=> (bvule x65 (_ bv10000 256)) (= (_ bv0 256) (x176 x65))))
(assert (= (_ bv0 256) (x176 (_ bv2519286136 256))))
(assert (= x295 (and x187 x165)))
(assert (= (x260 (x238 (_ bv64 256) x1 x208)) x208))
(assert (= (_ bv0 256) (x176 (_ bv91893037931264823478789666111544828899574148870504437229209701178949438013440 256))))
(assert (=> (bvule x278 (_ bv10000 256)) (= (x176 x278) (_ bv0 256))))
(assert (= x165 (or x98 x183)))
(assert (=> (bvule x171 (_ bv10000 256)) (= (x176 x171) (_ bv0 256))))
(assert (= (_ bv0 256) (x176 (_ bv1000000000000000 256))))
(assert (= x183 (and x411 x15)))
(assert (= x57 (=> (and (= (bvudiv x160 (_ bv1000000000000000000 256)) x286) (= (_ bv768 256) x118) (= x206 (bvadd x286 x376)) (= (_ bv704 256) x341) (= x299 x61) (= x317 x351) (= x94 x310) (= x61 (bvadd x55 x185)) (= x317 (bvadd x83 x339)) (not (bvult (bvadd x286 x376) x286))) x281)))
(assert (= (x176 (_ bv1461501637330902918203684832716283019655932542975 256)) (_ bv0 256)))
(assert (bvugt (x238 (_ bv64 256) x278 (_ bv104 256)) (_ bv10000 256)))
(assert (x211 (_ bv1000000000000000000 256)))
(check-sat)
(exit)
